NAME 
ROWS
 N  OBJ
 L  R0      
 E  R1      
 E  R2      
 E  R3      
 E  R4      
 E  R5      
 E  R6      
 E  R7      
 E  R8      
 E  R9      
 E  R10     
 E  R11     
 E  R12     
 E  R13     
 E  R14     
 E  R15     
COLUMNS
    MARKER    'MARKER'                 'INTORG'
    I0(10)    OBJ       -108
    I0(10)    R0        90
    I0(10)    R1        13
    I0(10)    R3        7
    I0(10)    R4        11
    I0(10)    R5        3
    I0(10)    R6        10
    I0(10)    R7        10
    I0(10)    R8        5
    I0(10)    R9        9
    I0(10)    R15       1
    I1(6)     OBJ       190
    I1(6)     R0        192
    I1(6)     R1        1
    I1(6)     R4        6
    I1(6)     R8        6
    I1(6)     R9        13
    I1(6)     R15       1
    I2(7)     OBJ       111
    I2(7)     R0        -26
    I2(7)     R1        15
    I2(7)     R2        12
    I2(7)     R5        19
    I2(7)     R6        16
    I2(7)     R8        11
    I2(7)     R15       1
    I3(6)     OBJ       131
    I3(6)     R0        172
    I3(6)     R2        5
    I3(6)     R3        10
    I3(6)     R6        14
    I3(6)     R8        12
    I3(6)     R15       1
    I4(9)     OBJ       9
    I4(9)     R0        29
    I4(9)     R2        -1
    I4(9)     R3        12
    I4(9)     R4        1
    I4(9)     R5        15
    I4(9)     R6        5
    I4(9)     R7        7
    I4(9)     R8        4
    I4(9)     R15       1
    I5(7)     OBJ       -17
    I5(7)     R0        65
    I5(7)     R1        10
    I5(7)     R2        15
    I5(7)     R3        19
    I5(7)     R6        3
    I5(7)     R7        15
    I5(7)     R15       1
    I6(7)     OBJ       6
    I6(7)     R0        -137
    I6(7)     R1        11
    I6(7)     R4        14
    I6(7)     R7        3
    I6(7)     R8        5
    I6(7)     R9        15
    I6(7)     R15       1
    I7(7)     OBJ       18
    I7(7)     R0        161
    I7(7)     R2        18
    I7(7)     R3        11
    I7(7)     R5        14
    I7(7)     R6        11
    I7(7)     R8        19
    I7(7)     R15       1
    I8(8)     OBJ       171
    I8(8)     R0        169
    I8(8)     R3        9
    I8(8)     R5        -1
    I8(8)     R6        7
    I8(8)     R7        14
    I8(8)     R8        13
    I8(8)     R9        12
    I8(8)     R15       1
    MARKER    'MARKER'                 'INTEND'
    C9(7)     OBJ       -2
    C9(7)     R2        2
    C9(7)     R6        15
    C9(7)     R8        2
    C9(7)     R10       1
    C9(7)     R11       9
    C9(7)     R12       3
    C9(7)     R14       5
    C10(9)    OBJ       -2
    C10(9)    R0        2
    C10(9)    R1        15
    C10(9)    R2        9
    C10(9)    R3        9
    C10(9)    R4        13
    C10(9)    R5        1
    C10(9)    R8        19
    C10(9)    R12       2
    C10(9)    R13       13
    C11(12)   OBJ       3
    C11(12)   R0        -4
    C11(12)   R3        1
    C11(12)   R4        13
    C11(12)   R5        5
    C11(12)   R6        16
    C11(12)   R7        18
    C11(12)   R8        14
    C11(12)   R9        7
    C11(12)   R10       1
    C11(12)   R11       10
    C11(12)   R12       16
    C11(12)   R14       14
    C12(7)    OBJ       -1
    C12(7)    R0        9
    C12(7)    R2        7
    C12(7)    R5        19
    C12(7)    R6        19
    C12(7)    R7        7
    C12(7)    R9        16
    C12(7)    R12       14
    C13(11)   OBJ       -7
    C13(11)   R0        6
    C13(11)   R1        3
    C13(11)   R2        13
    C13(11)   R6        17
    C13(11)   R8        17
    C13(11)   R9        14
    C13(11)   R10       19
    C13(11)   R11       17
    C13(11)   R12       -1
    C13(11)   R13       8
    C13(11)   R14       16
    C14(13)   OBJ       4
    C14(13)   R0        2
    C14(13)   R1        15
    C14(13)   R3        6
    C14(13)   R4        5
    C14(13)   R5        14
    C14(13)   R6        4
    C14(13)   R7        6
    C14(13)   R8        16
    C14(13)   R9        1
    C14(13)   R10       9
    C14(13)   R11       9
    C14(13)   R12       6
    C14(13)   R13       9
    C15(1)    R1        1
    C16(1)    R2        1
    C17(1)    R3        1
    C18(1)    R4        1
    C19(1)    R5        1
    C20(1)    R6        1
    C21(1)    R7        1
    C22(1)    R8        1
    C23(1)    R9        1
    C24(1)    R10       1
    C25(1)    R11       1
    C26(1)    R12       1
    C27(1)    R13       1
    C28(1)    R14       1
    C29(1)    R15       1
RHS
    RHS1      R0        2.5695665634674924e+02
    RHS1      R1        61
    RHS1      R2        86
    RHS1      R3        55
    RHS1      R4        71
    RHS1      R5        70
    RHS1      R6        53
    RHS1      R7        56
    RHS1      R8        53
    RHS1      R9        77
    RHS1      R10       79
    RHS1      R11       88
    RHS1      R12       94
    RHS1      R13       65
    RHS1      R14       53
    RHS1      R15       3
BOUNDS
 UP BND1      I0(10)    2
 UP BND1      I1(6)     2
 UP BND1      I2(7)     2
 UP BND1      I3(6)     2
 UP BND1      I4(9)     2
 UP BND1      I5(7)     2
 UP BND1      I6(7)     2
 UP BND1      I7(7)     2
 UP BND1      I8(8)     2
ENDATA
